p cnf 15 43
e 7 8 9 10 11 5 2 12 1 4 13 3 14 15 6 0
2 -12 0
5 -12 0
2 -12 -14 0
-12 -13 3 0
-5 -12 -6 -3 0
-5 -12 -6 -2 0
-12 -13 6 0
-12 14 6 0
2 -12 3 0
-12 -1 0
-12 -4 0
-12 -3 0
5 -12 13 0
5 -12 -14 0
5 -15 0
2 3 -15 0
-2 -15 0
3 -15 -7 0
3 -15 0
-1 -15 0
-4 -15 0
-8 2 -15 0
8 -15 6 0
-15 6 -7 0
-5 -6 -3 -15 0
-8 5 -15 0
-5 -6 -2 -15 0
7 5 -15 0
-9 -11 2 0
-9 -5 -6 -2 0
-9 -10 3 0
-9 -5 -6 -3 0
-9 5 0
-9 2 3 0
-9 -10 6 0
-9 11 6 0
-9 -4 0
-9 3 0
-9 -1 0
-9 -11 5 0
-9 10 5 0
-9 2 0
9 12 15 0
